(set-info :source  loris-7.ddns.comp.nus.edu.sg/~project/hip/) 
;Variables declarations
(declare-fun bhr_10488 () Int)
(declare-fun Anon_10487 () Int)
(declare-fun nr_10486 () Int)
(declare-fun nc () Int)
(declare-fun bhl_10484 () Int)
(declare-fun Anon_10483 () Int)
(declare-fun Anon_20 () Int)
(declare-fun nl_10482 () Int)
(declare-fun nb () Int)
(declare-fun r_10485 () Int)
(declare-fun l_10481 () Int)
(declare-fun v_10480 () Int)
(declare-fun nl_10410 () Int)
(declare-fun bhl_10411 () Int)
(declare-fun bhr_10454 () Int)
(declare-fun Anon_10453 () Int)
(declare-fun nr_10452 () Int)
(declare-fun bhl_10450 () Int)
(declare-fun Anon_10449 () Int)
(declare-fun nl_10448 () Int)
(declare-fun r_10451 () Int)
(declare-fun r_9873 () Int)
(declare-fun l_10447 () Int)
(declare-fun l_9870 () Int)
(declare-fun v_10446 () Int)
(declare-fun v_9869 () Int)
(declare-fun res () Int)
(declare-fun v_node_147_4593_primed () Int)
(declare-fun v_int_145_10402 () Int)
(declare-fun v_int_145_10401 () Int)
(declare-fun color_144_9880 () Int)
(declare-fun flted_12_9868 () Int)
(declare-fun flted_12_9867 () Int)
(declare-fun flted_12_9866 () Int)
(declare-fun flted_137_9879 () Int)
(declare-fun na () Int)
(declare-fun nr_9874 () Int)
(declare-fun nl_9871 () Int)
(declare-fun bhl_9872 () Int)
(declare-fun bhr_9875 () Int)
(declare-fun a () Int)
(declare-fun b_primed () Int)
(declare-fun b () Int)
(declare-fun c_primed () Int)
(declare-fun c () Int)
(declare-fun color_primed () Int)
(declare-fun flted_137_9878 () Int)
(declare-fun color () Int)
(declare-fun ha_9876 () Int)
(declare-fun ha_9877 () Int)
(declare-fun ha () Int)
(declare-fun v_int_144_10400 () Int)
(declare-fun v_10408 () Int)
(declare-fun v_int_147_10403 () Int)
(declare-fun l_10409 () Int)
(declare-fun a_primed () Int)
(declare-fun r_10412 () Int)
(declare-fun tmp_10404 () Int)
;Relations declarations
;Axioms assertions
;Antecedent
(assert (= bhr_10488 ha_9877))
(assert (= Anon_10487 flted_137_9878))
(assert (= nr_10486 nc))
(assert (= bhl_10484 ha_9876))
(assert (= Anon_10483 Anon_20))
(assert (= nl_10482 nb))
(assert (= r_10485 c_primed))
(assert (= l_10481 b_primed))
(assert (= v_10480 v_int_145_10401))
(assert (= nl_10410 (+ (+ nr_10452 1) nl_10448)))
(assert (= bhl_10411 (+ bhl_10450 1)))
(assert (= bhl_10450 bhr_10454))
(assert (= bhr_10454 bhr_9875))
(assert (= Anon_10453 flted_12_9866))
(assert (= nr_10452 nr_9874))
(assert (= bhl_10450 bhl_9872))
(assert (= Anon_10449 flted_12_9867))
(assert (= nl_10448 nl_9871))
(assert (= r_10451 r_9873))
(assert (= l_10447 l_9870))
(assert (= v_10446 v_9869))
(assert (= res v_node_147_4593_primed))
(assert (= v_int_147_10403 0))
(assert (= v_int_145_10402 0))
(assert (= v_int_145_10401 0))
(assert (= color_144_9880 flted_12_9868))
(assert (= flted_12_9868 1))
(assert (= flted_12_9867 0))
(assert (= flted_12_9866 0))
(assert (= flted_137_9879 1))
(assert (= na (+ (+ nr_9874 1) nl_9871)))
(assert (= bhl_9872 ha))
(assert (= bhr_9875 ha))
(assert (= a_primed a))
(assert (= b_primed b))
(assert (= c_primed c))
(assert (= color_primed color))
(assert (= flted_137_9878 0))
(assert (= color 1))
(assert (= ha_9876 ha))
(assert (= ha_9877 ha))
(assert (= v_int_144_10400 0))
(assert (= v_10408 v_int_147_10403))
(assert (= l_10409 a_primed))
(assert (= r_10412 tmp_10404))
;Negation of Consequence
(assert (not false))
(check-sat)